; start Z3 query
(declare-fun agent0_pos_z_ackermann!33 () (_ BitVec 32))
(assert (let ((a!1 (not (fp.eq ((_ to_fp 11 53)
                         roundNearestTiesToEven
                         ((_ to_fp 8 24) agent0_pos_z_ackermann!33))
                       ((_ to_fp 11 53) #x3ffd4bc6a7ef9db2)))))
  (not a!1)))
(check-sat)
(reset)
; end Z3 query

